n_res = 4;
rc = [ 0, 0, 0, 0 ];
n_tasks = 30;
d = [ 10, 4, 5, 1, 5, 9, 3, 9, 7, 9, 8, 1, 7, 9, 5, 4, 2, 8, 6, 2, 3, 4, 7, 1, 7, 7, 8, 5, 10, 9 ];
rr = [| 0, 0, 0, 0, 0, 0, 0, 0, 0, 0, 0, 0, 0, 0, 0, 0, 0, 0, 0, 0, 0, 0, 0, 0, 0, 0, 0, 0, 0, 0
      | 0, 0, 0, 0, 0, 0, 0, 0, 0, 0, 0, 0, 0, 0, 0, 0, 0, 0, 0, 0, 0, 0, 0, 0, 0, 0, 0, 0, 0, 0
      | 0, 0, 0, 0, 0, 0, 0, 0, 0, 0, 0, 0, 0, 0, 0, 0, 0, 0, 0, 0, 0, 0, 0, 0, 0, 0, 0, 0, 0, 0
      | 0, 0, 0, 0, 0, 0, 0, 0, 0, 0, 0, 0, 0, 0, 0, 0, 0, 0, 0, 0, 0, 0, 0, 0, 0, 0, 0, 0, 0, 0 |];
suc = [ { 5, 13 },
       { 4, 12, 21 },
       { 6, 8, 9 },
       { 11 },
       { 7, 9, 16 },
       { 15, 18, 23 },
       { 18 },
       { 10, 21, 24 },
       { 10 },
       { 14, 17, 27 },
       { 17 },
       { 22, 27 },
       { 15, 26 },
       { 20, 23 },
       { 19, 24, 25 },
       { 21, 22 },
       { 26, 28 },
       { 20, 22 },
       { 27, 29 },
       { 25 },
       { 23, 28 },
       { 25, 30 },
       { 26 },
       { 29, 30 },
       { 29 },
       { 30 },
       { 28 },
       {  },
       {  },
       {  } ];
